Maximize
  18 u1 + 16 u2 + 10 u3 + 12 u4 + 11 u5 + 17 u6 + 11 u7 + 13 u8 + 16 u9
   + 17 u10 + 14 u11 + 10 u12 + 14 u13 + 12 u14 + 12 u15 + 16 u16 + 19 u17
   + 11 u18 + 13 u19 + 17 u20 + 18 u21 + 15 u22 + 12 u23 + 19 u24 + 19 u25
   + 19 u26 + 16 u27 + 18 u28 + 15 u29 + 18 u30 + 16 u31 + 15 u32 + 19 u33
   + 16 u34 + 11 u35 + 18 u36 + 17 u37 + 13 u38 + 12 u39 + 15 u40 + 14 u41
   + 13 u42 + 12 u43 + 19 u44 + 14 u45 + 10 u46 + 12 u47 + 10 u48 + 19 u49
   + 15 u50 + 10 u51 + 13 u52 + 11 u53 + 14 u54 + 11 u55 + 10 u56 + 18 u57
   + 16 u58 + 17 u59 + 18 u60 + 11 u61 + 16 u62 + 16 u63 + 14 u64 + 10 u65
   + 17 u66 + 11 u67 + 16 u68 + 17 u69 + 19 u70 + 15 u71 + 11 u72 + 15 u73
   + 10 u74 + 12 u75 + 13 u76 + 13 u77 + 11 u78 + 10 u79 + 16 u80 + 19 u81
   + 10 u82 + 10 u83 + 19 u84 + 13 u85 + 12 u86 + 19 u87 + 15 u88 + 18 u89
   + 14 u90 + 14 u91 + 11 u92 + 13 u93 + 11 u94 + 16 u95 + 13 u96 + 18 u97
   + 17 u98 + 17 u99 + 19 u100 + 16 u101 + 16 u102 + 17 u103 + 10 u104
   + 14 u105 + 13 u106 + 18 u107 + 16 u108 + 12 u109 + 13 u110 + 17 u111
   + 10 u112 + 10 u113 + 15 u114 + 11 u115 + 11 u116 + 12 u117 + 12 u118
   + 10 u119 + 12 u120 + 10 u121 + 18 u122 + 14 u123 + 11 u124 + 14 u125
   + 16 u126 + 16 u127 + 19 u128 + 11 u129 + 16 u130 + 18 u131 + 12 u132
   + 12 u133 + 10 u134 + 11 u135 + 17 u136 + 12 u137 + 16 u138 + 19 u139
   + 19 u140 + 11 u141 + 12 u142 + 15 u143 + 19 u144 + 14 u145 + 10 u146
   + 14 u147 + 10 u148 + 11 u149 + 17 u150 + 19 u151 + 17 u152 + 15 u153
   + 13 u154 + 16 u155 + 12 u156 + 10 u157 + 16 u158 + 14 u159 + 14 u160
   + 12 u161 + 13 u162 + 14 u163 + 13 u164 + 10 u165 + 15 u166 + 14 u167
   + 12 u168 + 13 u169 + 14 u170 + 11 u171 + 17 u172 + 16 u173 + 15 u174
   + 14 u175 + 12 u176 + 10 u177 + 13 u178 + 14 u179 + 15 u180 + 13 u181
   + 10 u182 + 13 u183 + 13 u184 + 12 u185 + 12 u186 + 14 u187 + 18 u188
   + 13 u189 + 19 u190 + 10 u191 + 15 u192 + 16 u193 + 15 u194 + 15 u195
   + 19 u196 + 15 u197 + 10 u198 + 15 u199 + 13 u200 + 19 u201 + 12 u202
   + 17 u203 + 19 u204 + 18 u205 + 19 u206 + 19 u207 + 13 u208 + 15 u209
   + 16 u210 + 11 u211 + 12 u212 + 14 u213 + 19 u214 + 12 u215 + 16 u216
   + 18 u217 + 12 u218 + 14 u219 + 14 u220 + 14 u221 + 10 u222 + 13 u223
   + 13 u224 + 16 u225 + 16 u226 + 16 u227 + 15 u228 + 18 u229 + 11 u230
   + 13 u231 + 14 u232 + 12 u233 + 13 u234 + 14 u235 + 10 u236 + 17 u237
   + 12 u238 + 14 u239 + 16 u240 + 16 u241 + 13 u242 + 13 u243 + 18 u244
   + 11 u245 + 17 u246 + 18 u247 + 18 u248 + 15 u249 + 16 u250 + 12 u251
   + 16 u252 + 17 u253 + 16 u254 + 19 u255 + 11 u256 + 11 u257 + 17 u258
   + 13 u259 + 13 u260 + 17 u261 + 18 u262 + 16 u263 + 12 u264 + 10 u265
   + 14 u266 + 12 u267 + 15 u268 + 19 u269 + 14 u270 + 19 u271 + 14 u272
   + 12 u273 + 16 u274 + 18 u275 + 13 u276 + 14 u277 + 15 u278 + 12 u279
   + 10 u280 + 11 u281 + 18 u282 + 10 u283 + 14 u284 + 12 u285 + 13 u286
   + 12 u287 + 14 u288 + 16 u289 + 16 u290 + 15 u291 + 12 u292 + 14 u293
   + 16 u294 + 13 u295 + 15 u296 + 17 u297 + 11 u298 + 16 u299 + 13 u300
   + 17 u301 + 16 u302 + 10 u303 + 18 u304 + 18 u305 + 10 u306 + 10 u307
   + 17 u308 + 16 u309 + 18 u310 + 19 u311 + 11 u312 + 15 u313 + 17 u314
   + 19 u315 + 12 u316 + 12 u317 + 18 u318 + 18 u319 + 15 u320 + 13 u321
   + 14 u322 + 17 u323 + 19 u324 + 14 u325 + 15 u326 + 19 u327 + 14 u328
   + 17 u329 + 18 u330 + 12 u331 + 19 u332 + 15 u333 + 14 u334 + 17 u335
   + 14 u336 + 14 u337 + 19 u338 + 14 u339 + 17 u340 + 11 u341 + 16 u342
   + 11 u343 + 10 u344 + 12 u345 + 18 u346 + 18 u347 + 11 u348 + 13 u349
   + 16 u350 + 16 u351 + 10 u352 + 17 u353 + 18 u354 + 17 u355 + 10 u356
   + 16 u357 + 13 u358 + 13 u359 + 18 u360 + 15 u361 + 13 u362 + 11 u363
   + 15 u364 + 13 u365 + 19 u366 + 19 u367 + 14 u368 + 12 u369 + 18 u370
   + 10 u371 + 16 u372 + 11 u373 + 12 u374 + 19 u375 + 11 u376 + 10 u377
   + 17 u378 + 16 u379 + 10 u380 + 13 u381 + 14 u382 + 10 u383 + 10 u384
   + 17 u385 + 10 u386 + 17 u387 + 16 u388 + 19 u389 + 17 u390 + 13 u391
   + 17 u392 + 19 u393 + 15 u394 + 15 u395 + 14 u396 + 10 u397 + 12 u398
   + 11 u399 + 19 u400 + 19 u401 + 12 u402 + 14 u403 + 13 u404 + 16 u405
   + 15 u406 + 14 u407 + 18 u408 + 16 u409 + 19 u410 + 15 u411 + 12 u412
   + 10 u413 + 12 u414 + 19 u415 + 12 u416 + 12 u417 + 13 u418 + 17 u419
   + 17 u420 + 12 u421 + 14 u422 + 17 u423 + 17 u424 + 15 u425 + 10 u426
   + 14 u427 + 10 u428 + 13 u429 + 10 u430 + 12 u431 + 10 u432 + 15 u433
   + 11 u434 + 12 u435 + 17 u436 + 15 u437 + 13 u438 + 16 u439 + 18 u440
   + 11 u441 + 10 u442 + 15 u443 + 10 u444 + 19 u445 + 12 u446 + 15 u447
   + 15 u448 + 11 u449 + 15 u450 + 18 u451 + 15 u452 + 15 u453 + 18 u454
   + 19 u455 + 17 u456 + 19 u457 + 16 u458 + 14 u459 + 19 u460 + 19 u461
   + 16 u462 + 12 u463 + 11 u464 + 17 u465 + 13 u466 + 17 u467 + 18 u468
   + 12 u469 + 16 u470 + 16 u471 + 11 u472 + 15 u473 + 18 u474 + 11 u475
   + 12 u476 + 15 u477 + 14 u478 + 10 u479 + 15 u480 + 16 u481 + 11 u482
   + 13 u483 + 15 u484 + 13 u485 + 14 u486 + 19 u487 + 14 u488 + 16 u489
   + 17 u490 + 11 u491 + 10 u492 + 13 u493 + 19 u494 + 11 u495 + 12 u496
   + 12 u497 + 13 u498 + 17 u499 + 14 u500
Subject To
 R0: 13346 u1 <= 16
 R1: 13295 u2 <= 18
 R2: 13706 u3 <= 17
 R3: 13199 u4 <= 17
 R4: 13977 u5 <= 18
 R5: 13381 u6 <= 12
 R6: 13218 u7 <= 17
 R7: 13493 u8 <= 19
 R8: 13294 u9 <= 14
 R9: 13808 u10 <= 11
 R10: 13521 u11 <= 13
 R11: 13203 u12 <= 19
 R12: 13207 u13 <= 14
 R13: 14029 u14 <= 15
 R14: 13049 u15 <= 10
 R15: 13861 u16 <= 10
 R16: 13459 u17 <= 13
 R17: 13412 u18 <= 18
 R18: 13558 u19 <= 13
 R19: 13817 u20 <= 13
 R20: 13525 u21 <= 13
 R21: 13458 u22 <= 16
 R22: 13160 u23 <= 19
 R23: 13605 u24 <= 16
 R24: 13396 u25 <= 10
 R25: 13196 u26 <= 13
 R26: 13839 u27 <= 14
 R27: 13842 u28 <= 11
 R28: 13240 u29 <= 14
 R29: 13841 u30 <= 10
 R30: 13263 u31 <= 15
 R31: 13007 u32 <= 19
 R32: 13412 u33 <= 16
 R33: 13408 u34 <= 12
 R34: 13642 u35 <= 10
 R35: 13409 u36 <= 14
 R36: 13505 u37 <= 18
 R37: 14076 u38 <= 11
 R38: 13513 u39 <= 10
 R39: 13536 u40 <= 15
 R40: 13397 u41 <= 17
 R41: 13828 u42 <= 19
 R42: 13436 u43 <= 12
 R43: 13298 u44 <= 17
 R44: 13817 u45 <= 18
 R45: 13503 u46 <= 10
 R46: 13864 u47 <= 11
 R47: 13405 u48 <= 14
 R48: 13456 u49 <= 10
 R49: 13507 u50 <= 17
 R50: 13678 u51 <= 10
 R51: 13422 u52 <= 13
 R52: 13773 u53 <= 11
 R53: 13733 u54 <= 15
 R54: 14042 u55 <= 11
 R55: 13470 u56 <= 17
 R56: 13990 u57 <= 18
 R57: 13191 u58 <= 10
 R58: 12943 u59 <= 15
 R59: 13972 u60 <= 11
 R60: 12847 u61 <= 19
 R61: 13331 u62 <= 10
 R62: 13372 u63 <= 16
 R63: 13685 u64 <= 18
 R64: 12852 u65 <= 12
 R65: 13529 u66 <= 10
 R66: 13204 u67 <= 11
 R67: 13698 u68 <= 19
 R68: 13896 u69 <= 17
 R69: 13887 u70 <= 15
 R70: 13542 u71 <= 14
 R71: 13071 u72 <= 10
 R72: 13319 u73 <= 12
 R73: 13740 u74 <= 12
 R74: 13949 u75 <= 10
 R75: 13752 u76 <= 12
 R76: 13720 u77 <= 16
 R77: 14129 u78 <= 11
 R78: 13324 u79 <= 19
 R79: 13408 u80 <= 16
 R80: 13396 u81 <= 16
 R81: 13490 u82 <= 15
 R82: 13660 u83 <= 17
 R83: 13090 u84 <= 19
 R84: 12877 u85 <= 11
 R85: 13864 u86 <= 14
 R86: 13170 u87 <= 18
 R87: 13868 u88 <= 12
 R88: 13558 u89 <= 15
 R89: 13225 u90 <= 10
 R90: 13382 u91 <= 15
 R91: 13416 u92 <= 15
 R92: 13677 u93 <= 17
 R93: 13475 u94 <= 15
 R94: 13100 u95 <= 16
 R95: 13509 u96 <= 14
 R96: 13075 u97 <= 12
 R97: 13817 u98 <= 14
 R98: 13176 u99 <= 13
 R99: 13923 u100 <= 13
 R100: 13294 u101 <= 16
 R101: 13242 u102 <= 16
 R102: 13314 u103 <= 17
 R103: 13259 u104 <= 11
 R104: 13477 u105 <= 15
 R105: 13605 u106 <= 16
 R106: 13710 u107 <= 17
 R107: 14068 u108 <= 15
 R108: 13516 u109 <= 16
 R109: 13593 u110 <= 19
 R110: 13714 u111 <= 13
 R111: 13320 u112 <= 15
 R112: 13192 u113 <= 14
 R113: 13653 u114 <= 19
 R114: 13588 u115 <= 18
 R115: 12816 u116 <= 11
 R116: 13470 u117 <= 10
 R117: 13368 u118 <= 18
 R118: 14016 u119 <= 13
 R119: 13061 u120 <= 15
 R120: 13417 u121 <= 12
 R121: 13595 u122 <= 10
 R122: 13330 u123 <= 11
 R123: 13791 u124 <= 17
 R124: 13396 u125 <= 12
 R125: 13470 u126 <= 12
 R126: 13126 u127 <= 13
 R127: 13506 u128 <= 11
 R128: 13426 u129 <= 10
 R129: 13341 u130 <= 10
 R130: 13311 u131 <= 13
 R131: 13156 u132 <= 16
 R132: 13424 u133 <= 13
 R133: 13553 u134 <= 12
 R134: 13437 u135 <= 13
 R135: 13849 u136 <= 12
 R136: 13693 u137 <= 10
 R137: 13433 u138 <= 15
 R138: 13054 u139 <= 16
 R139: 13745 u140 <= 14
 R140: 13709 u141 <= 19
 R141: 13258 u142 <= 17
 R142: 13013 u143 <= 17
 R143: 13428 u144 <= 15
 R144: 13821 u145 <= 14
 R145: 13400 u146 <= 19
 R146: 13532 u147 <= 13
 R147: 13479 u148 <= 19
 R148: 13841 u149 <= 18
 R149: 12741 u150 <= 13
 R150: 13582 u151 <= 15
 R151: 12928 u152 <= 11
 R152: 12960 u153 <= 10
 R153: 13205 u154 <= 13
 R154: 13707 u155 <= 18
 R155: 13463 u156 <= 16
 R156: 13599 u157 <= 17
 R157: 13395 u158 <= 10
 R158: 13224 u159 <= 15
 R159: 13481 u160 <= 19
 R160: 13883 u161 <= 19
 R161: 14007 u162 <= 13
 R162: 13417 u163 <= 15
 R163: 13757 u164 <= 13
 R164: 13294 u165 <= 19
 R165: 13979 u166 <= 17
 R166: 13712 u167 <= 11
 R167: 13784 u168 <= 13
 R168: 13613 u169 <= 13
 R169: 14057 u170 <= 16
 R170: 13977 u171 <= 17
 R171: 13396 u172 <= 16
 R172: 13034 u173 <= 12
 R173: 13262 u174 <= 11
 R174: 13553 u175 <= 17
 R175: 13457 u176 <= 13
 R176: 13552 u177 <= 17
 R177: 13756 u178 <= 17
 R178: 14172 u179 <= 18
 R179: 13323 u180 <= 14
 R180: 13015 u181 <= 19
 R181: 13346 u182 <= 16
 R182: 13793 u183 <= 13
 R183: 13619 u184 <= 13
 R184: 13592 u185 <= 17
 R185: 14137 u186 <= 17
 R186: 13632 u187 <= 17
 R187: 13560 u188 <= 18
 R188: 13238 u189 <= 11
 R189: 13342 u190 <= 13
 R190: 13815 u191 <= 15
 R191: 13375 u192 <= 19
 R192: 13768 u193 <= 17
 R193: 13772 u194 <= 19
 R194: 13096 u195 <= 19
 R195: 13701 u196 <= 18
 R196: 13052 u197 <= 11
 R197: 13130 u198 <= 11
 R198: 13661 u199 <= 11
 R199: 12565 u200 <= 11
 R200: 13482 u201 <= 17
 R201: 13106 u202 <= 14
 R202: 14081 u203 <= 16
 R203: 13431 u204 <= 11
 R204: 13802 u205 <= 13
 R205: 13069 u206 <= 12
 R206: 13732 u207 <= 15
 R207: 13298 u208 <= 13
 R208: 13139 u209 <= 19
 R209: 13525 u210 <= 19
 R210: 13282 u211 <= 19
 R211: 13266 u212 <= 10
 R212: 13461 u213 <= 11
 R213: 13659 u214 <= 19
 R214: 13626 u215 <= 16
 R215: 13286 u216 <= 16
 R216: 13527 u217 <= 17
 R217: 13478 u218 <= 19
 R218: 12798 u219 <= 19
 R219: 12975 u220 <= 16
 R220: 13814 u221 <= 11
 R221: 13586 u222 <= 12
 R222: 13238 u223 <= 19
 R223: 13659 u224 <= 11
 R224: 13293 u225 <= 19
 R225: 13953 u226 <= 10
 R226: 13128 u227 <= 12
 R227: 13421 u228 <= 15
 R228: 13459 u229 <= 19
 R229: 13418 u230 <= 14
 R230: 13620 u231 <= 11
 R231: 13548 u232 <= 16
 R232: 13473 u233 <= 11
 R233: 13427 u234 <= 14
 R234: 13504 u235 <= 11
 R235: 13933 u236 <= 13
 R236: 13941 u237 <= 17
 R237: 13341 u238 <= 12
 R238: 13771 u239 <= 10
 R239: 13466 u240 <= 16
 R240: 13540 u241 <= 18
 R241: 13464 u242 <= 16
 R242: 13631 u243 <= 17
 R243: 13963 u244 <= 19
 R244: 13558 u245 <= 17
 R245: 13545 u246 <= 11
 R246: 13723 u247 <= 17
 R247: 13490 u248 <= 10
 R248: 13392 u249 <= 11
 R249: 13530 u250 <= 18
 R250: 13988 u251 <= 18
 R251: 13339 u252 <= 11
 R252: 13547 u253 <= 11
 R253: 13765 u254 <= 18
 R254: 13075 u255 <= 10
 R255: 13457 u256 <= 17
 R256: 13624 u257 <= 18
 R257: 13406 u258 <= 17
 R258: 13711 u259 <= 14
 R259: 13708 u260 <= 10
 R260: 13602 u261 <= 11
 R261: 13579 u262 <= 19
 R262: 13249 u263 <= 16
 R263: 13791 u264 <= 17
 R264: 13265 u265 <= 18
 R265: 13520 u266 <= 18
 R266: 14327 u267 <= 13
 R267: 13832 u268 <= 12
 R268: 13477 u269 <= 14
 R269: 13599 u270 <= 16
 R270: 12843 u271 <= 19
 R271: 13393 u272 <= 16
 R272: 13380 u273 <= 11
 R273: 13535 u274 <= 13
 R274: 13344 u275 <= 13
 R275: 13473 u276 <= 17
 R276: 13747 u277 <= 14
 R277: 12993 u278 <= 15
 R278: 13371 u279 <= 15
 R279: 13743 u280 <= 11
 R280: 14039 u281 <= 15
 R281: 12872 u282 <= 10
 R282: 13789 u283 <= 15
 R283: 13532 u284 <= 17
 R284: 13517 u285 <= 17
 R285: 13255 u286 <= 18
 R286: 13621 u287 <= 19
 R287: 13038 u288 <= 19
 R288: 13371 u289 <= 10
 R289: 13230 u290 <= 13
 R290: 13552 u291 <= 12
 R291: 13600 u292 <= 17
 R292: 13724 u293 <= 19
 R293: 14035 u294 <= 11
 R294: 13669 u295 <= 19
 R295: 14077 u296 <= 15
 R296: 13438 u297 <= 10
 R297: 13609 u298 <= 12
 R298: 13552 u299 <= 11
 R299: 13121 u300 <= 19
 R300: 13132 u301 <= 15
 R301: 13136 u302 <= 18
 R302: 13753 u303 <= 13
 R303: 13628 u304 <= 17
 R304: 13042 u305 <= 11
 R305: 14069 u306 <= 10
 R306: 13516 u307 <= 10
 R307: 13914 u308 <= 19
 R308: 13647 u309 <= 18
 R309: 13194 u310 <= 18
 R310: 13815 u311 <= 12
 R311: 14005 u312 <= 10
 R312: 14025 u313 <= 12
 R313: 13535 u314 <= 15
 R314: 13482 u315 <= 12
 R315: 13750 u316 <= 11
 R316: 12815 u317 <= 11
 R317: 13530 u318 <= 19
 R318: 13681 u319 <= 14
 R319: 13188 u320 <= 17
 R320: 13239 u321 <= 13
 R321: 13974 u322 <= 19
 R322: 13939 u323 <= 12
 R323: 12968 u324 <= 13
 R324: 13915 u325 <= 19
 R325: 13227 u326 <= 19
 R326: 13658 u327 <= 15
 R327: 13446 u328 <= 17
 R328: 13558 u329 <= 17
 R329: 13778 u330 <= 11
 R330: 13432 u331 <= 16
 R331: 13255 u332 <= 13
 R332: 13595 u333 <= 15
 R333: 13203 u334 <= 12
 R334: 13386 u335 <= 12
 R335: 13650 u336 <= 11
 R336: 13693 u337 <= 10
 R337: 13737 u338 <= 19
 R338: 13536 u339 <= 15
 R339: 13421 u340 <= 12
 R340: 13208 u341 <= 15
 R341: 13728 u342 <= 15
 R342: 13641 u343 <= 15
 R343: 13298 u344 <= 10
 R344: 13631 u345 <= 16
 R345: 13602 u346 <= 15
 R346: 13335 u347 <= 17
 R347: 13305 u348 <= 12
 R348: 13846 u349 <= 18
 R349: 13709 u350 <= 14
 R350: 13641 u351 <= 19
 R351: 13224 u352 <= 10
 R352: 13195 u353 <= 11
 R353: 13185 u354 <= 10
 R354: 13820 u355 <= 10
 R355: 13581 u356 <= 18
 R356: 13651 u357 <= 15
 R357: 13696 u358 <= 13
 R358: 13048 u359 <= 18
 R359: 13170 u360 <= 10
 R360: 13238 u361 <= 19
 R361: 13907 u362 <= 17
 R362: 13272 u363 <= 12
 R363: 13749 u364 <= 10
 R364: 13326 u365 <= 12
 R365: 13644 u366 <= 17
 R366: 13606 u367 <= 13
 R367: 13118 u368 <= 10
 R368: 13575 u369 <= 16
 R369: 13242 u370 <= 15
 R370: 13767 u371 <= 19
 R371: 13211 u372 <= 14
 R372: 13530 u373 <= 18
 R373: 12770 u374 <= 17
 R374: 13888 u375 <= 14
 R375: 13521 u376 <= 18
 R376: 14221 u377 <= 12
 R377: 13314 u378 <= 13
 R378: 13018 u379 <= 18
 R379: 12946 u380 <= 10
 R380: 13635 u381 <= 18
 R381: 13455 u382 <= 15
 R382: 13696 u383 <= 10
 R383: 13455 u384 <= 14
 R384: 13876 u385 <= 12
 R385: 12795 u386 <= 15
 R386: 13485 u387 <= 10
 R387: 13549 u388 <= 17
 R388: 13258 u389 <= 16
 R389: 13928 u390 <= 10
 R390: 13531 u391 <= 17
 R391: 13460 u392 <= 16
 R392: 13180 u393 <= 16
 R393: 13513 u394 <= 16
 R394: 13387 u395 <= 10
 R395: 13265 u396 <= 10
 R396: 13498 u397 <= 10
 R397: 13107 u398 <= 16
 R398: 13681 u399 <= 18
 R399: 12981 u400 <= 12
 R400: 13784 u401 <= 16
 R401: 13468 u402 <= 14
 R402: 13603 u403 <= 19
 R403: 12892 u404 <= 10
 R404: 13409 u405 <= 12
 R405: 12757 u406 <= 14
 R406: 13882 u407 <= 17
 R407: 13173 u408 <= 19
 R408: 13327 u409 <= 15
 R409: 13711 u410 <= 12
 R410: 13439 u411 <= 17
 R411: 13453 u412 <= 15
 R412: 13975 u413 <= 17
 R413: 13259 u414 <= 19
 R414: 13509 u415 <= 12
 R415: 13084 u416 <= 11
 R416: 13416 u417 <= 14
 R417: 13313 u418 <= 11
 R418: 13510 u419 <= 11
 R419: 13730 u420 <= 14
 R420: 13849 u421 <= 15
 R421: 13631 u422 <= 11
 R422: 12673 u423 <= 12
 R423: 13639 u424 <= 19
 R424: 13989 u425 <= 17
 R425: 13411 u426 <= 15
 R426: 14083 u427 <= 10
 R427: 13626 u428 <= 17
 R428: 13474 u429 <= 18
 R429: 13540 u430 <= 12
 R430: 13513 u431 <= 10
 R431: 13105 u432 <= 14
 R432: 13657 u433 <= 14
 R433: 13835 u434 <= 13
 R434: 13623 u435 <= 14
 R435: 13724 u436 <= 15
 R436: 13376 u437 <= 12
 R437: 13573 u438 <= 11
 R438: 13914 u439 <= 15
 R439: 13287 u440 <= 13
 R440: 13867 u441 <= 18
 R441: 13504 u442 <= 19
 R442: 13089 u443 <= 17
 R443: 13107 u444 <= 19
 R444: 13251 u445 <= 18
 R445: 12899 u446 <= 19
 R446: 14115 u447 <= 18
 R447: 13410 u448 <= 17
 R448: 13767 u449 <= 11
 R449: 13551 u450 <= 17
 R450: 13617 u451 <= 11
 R451: 13688 u452 <= 13
 R452: 13326 u453 <= 13
 R453: 13826 u454 <= 15
 R454: 13666 u455 <= 13
 R455: 13545 u456 <= 13
 R456: 13048 u457 <= 16
 R457: 13258 u458 <= 19
 R458: 13177 u459 <= 15
 R459: 13522 u460 <= 17
 R460: 13403 u461 <= 12
 R461: 13531 u462 <= 18
 R462: 13555 u463 <= 17
 R463: 13930 u464 <= 17
 R464: 13240 u465 <= 14
 R465: 13915 u466 <= 13
 R466: 13338 u467 <= 17
 R467: 13452 u468 <= 16
 R468: 13197 u469 <= 12
 R469: 13512 u470 <= 16
 R470: 13510 u471 <= 15
 R471: 13712 u472 <= 19
 R472: 13116 u473 <= 17
 R473: 13291 u474 <= 11
 R474: 12996 u475 <= 15
 R475: 13605 u476 <= 19
 R476: 13819 u477 <= 19
 R477: 13540 u478 <= 16
 R478: 13225 u479 <= 13
 R479: 13510 u480 <= 11
 R480: 13414 u481 <= 10
 R481: 13221 u482 <= 19
 R482: 12890 u483 <= 15
 R483: 13181 u484 <= 10
 R484: 14285 u485 <= 16
 R485: 13667 u486 <= 19
 R486: 13544 u487 <= 19
 R487: 13185 u488 <= 15
 R488: 13698 u489 <= 12
 R489: 13281 u490 <= 15
 R490: 13588 u491 <= 11
 R491: 13856 u492 <= 18
 R492: 13738 u493 <= 11
 R493: 13158 u494 <= 13
 R494: 13556 u495 <= 10
 R495: 13127 u496 <= 10
 R496: 13232 u497 <= 18
 R497: 13375 u498 <= 10
 R498: 14067 u499 <= 14
 R499: 13329 u500 <= 19
Bounds
End
